57491
10, 22, 39, 46, 36, 15, 16, 52, 45, 25, 11, 31, 1, 27, 33, 42, 2, 14, 9, 12, 4, 18, 30, 47, 54, 34, 53, 23, 17, 48, 19, 32, 35, 24, 5, 37, 51, 40, 7, 20, 50, 38, 8, 44, 41, 13, 43, 3, 6, 55, 28, 26, 49, 21, 29
